(declare-const a Real)
(declare-const b Real)
(declare-const c Real)
(assert (= (* a b c) 1))
(assert (> a 0))
(assert (> b 0))
(assert (> c 0))
(assert (not (<= (+ (* -904881152 (pow b 4)) (* -694117376 (pow a 4)) (* (pow (+ 6659712 (* 6659712 (pow a 4))) -1) (pow (+ (* 6659712 (pow a 4)) (* 6659712 (pow b 2))) 2)) (* -1811939328 (pow a (pow 3 -1)) (pow b (/ 11 3))) (* -905969664 (pow a (/ 10 3)) (pow b (/ 2 3))) (* 39958272 (pow a 2) (pow b 2)) (* 1015081472 b (pow a 3)) (* 3248548352 a (pow b 3))) 0)))
(check-sat)
(get-model)
(exit)